========================================================== 
File name: C:\DEGR\assets\definitions\MSRCPSP_Gen\500_40_512_10_B.def
Creation date: Sat May 06 09:17:00 CEST 2023
Website: http://imopse.ii.pwr.edu.pl/ 
Reference: 
Myszkowski P. B., Skowronski M. E., Olech L., Oslizlo K., 
Hybrid Ant Colony Optimization in solving Multi-Skill Resource-Constrained Project Scheduling Problem, 
Soft Computing, DOI: DOI 10.1007/s00500-014-1455-x 
========================================================== 
General characteristics: 
Tasks: 500
Resources: 40
Precedence relations: 512
Number of skill types: 10
========================================================== 
ResourceID 	 Salary 	 Skills 
1	 	 	63.4	 	 Q3: 2 	  Q7: 1 	  Q4: 3 	  Q6: 2 	  Q2: 3 	  Q5: 3 	  Q9: 2 	  Q0: 2 	  Q8: 3 	 
2	 	 	35.6	 	 Q7: 0 	  Q8: 0 	  Q1: 3 	  Q4: 2 	  Q0: 1 	  Q2: 0 	  Q3: 1 	  Q9: 0 	 
3	 	 	82.0	 	 Q5: 3 	 
4	 	 	62.2	 	 Q7: 3 	  Q6: 0 	  Q1: 1 	  Q9: 1 	  Q0: 0 	  Q3: 1 	  Q8: 2 	  Q4: 0 	  Q2: 0 	 
5	 	 	80.2	 	 Q7: 3 	  Q1: 3 	  Q0: 3 	  Q2: 2 	  Q8: 1 	  Q4: 2 	 
6	 	 	90.0	 	 Q9: 3 	  Q1: 1 	  Q3: 2 	  Q2: 2 	  Q6: 3 	  Q5: 0 	 
7	 	 	53.0	 	 Q1: 2 	  Q0: 1 	  Q4: 2 	  Q3: 2 	  Q7: 1 	  Q5: 1 	 
8	 	 	12.2	 	 Q3: 3 	  Q1: 3 	  Q0: 2 	  Q4: 0 	  Q2: 0 	  Q6: 0 	  Q7: 2 	 
9	 	 	72.8	 	 Q1: 2 	  Q2: 2 	  Q5: 1 	  Q0: 0 	  Q4: 2 	  Q3: 0 	 
10	 	 	97.2	 	 Q5: 0 	 
11	 	 	63.4	 	 Q1: 0 	  Q8: 0 	  Q9: 0 	  Q4: 1 	  Q5: 1 	  Q0: 0 	  Q7: 3 	 
12	 	 	49.5	 	 Q4: 1 	  Q5: 2 	  Q2: 3 	  Q1: 3 	 
13	 	 	60.6	 	 Q0: 0 	  Q7: 3 	 
14	 	 	29.9	 	 Q0: 0 	  Q2: 0 	 
15	 	 	85.6	 	 Q4: 1 	  Q1: 1 	  Q9: 3 	  Q8: 2 	 
16	 	 	32.9	 	 Q9: 2 	  Q1: 1 	  Q0: 1 	  Q2: 3 	  Q4: 3 	  Q8: 0 	  Q6: 2 	  Q7: 0 	 
17	 	 	90.1	 	 Q4: 2 	  Q6: 0 	  Q8: 3 	  Q3: 3 	  Q0: 2 	  Q5: 0 	 
18	 	 	13.7	 	 Q7: 3 	  Q1: 3 	  Q2: 1 	 
19	 	 	42.0	 	 Q2: 2 	  Q3: 0 	  Q5: 0 	  Q9: 1 	  Q6: 3 	  Q7: 0 	  Q1: 2 	  Q8: 3 	 
20	 	 	64.9	 	 Q6: 2 	  Q1: 3 	  Q9: 3 	  Q4: 0 	  Q7: 2 	  Q2: 2 	  Q0: 0 	 
21	 	 	65.9	 	 Q4: 0 	  Q9: 1 	  Q5: 3 	  Q0: 2 	  Q1: 1 	  Q6: 2 	  Q8: 3 	  Q3: 1 	 
22	 	 	24.7	 	 Q1: 2 	  Q8: 0 	  Q0: 3 	  Q5: 1 	  Q6: 3 	  Q4: 0 	 
23	 	 	97.8	 	 Q5: 3 	  Q0: 2 	  Q8: 0 	  Q4: 2 	  Q7: 0 	  Q3: 2 	  Q2: 0 	  Q1: 0 	 
24	 	 	58.7	 	 Q5: 0 	  Q7: 2 	  Q2: 1 	  Q3: 0 	  Q0: 2 	 
25	 	 	61.8	 	 Q9: 2 	  Q4: 1 	  Q5: 3 	  Q6: 1 	  Q8: 1 	  Q1: 1 	  Q0: 1 	 
26	 	 	23.2	 	 Q7: 2 	  Q3: 0 	  Q4: 3 	  Q5: 0 	 
27	 	 	82.4	 	 Q7: 0 	  Q6: 0 	  Q5: 2 	 
28	 	 	61.9	 	 Q6: 1 	  Q5: 1 	  Q1: 3 	  Q4: 0 	 
29	 	 	88.9	 	 Q4: 3 	  Q5: 3 	  Q9: 0 	  Q7: 3 	  Q3: 2 	  Q8: 0 	  Q1: 2 	  Q6: 0 	 
30	 	 	91.1	 	 Q5: 2 	  Q2: 3 	  Q8: 1 	 
31	 	 	52.3	 	 Q4: 3 	 
32	 	 	89.3	 	 Q9: 2 	 
33	 	 	16.3	 	 Q3: 2 	  Q7: 3 	  Q4: 1 	  Q2: 2 	  Q9: 3 	 
34	 	 	76.0	 	 Q8: 3 	  Q1: 2 	  Q9: 1 	  Q2: 3 	  Q4: 1 	  Q7: 0 	 
35	 	 	88.3	 	 Q0: 0 	 
36	 	 	73.9	 	 Q5: 0 	  Q3: 0 	  Q6: 0 	  Q1: 0 	  Q8: 0 	  Q7: 1 	  Q2: 3 	  Q9: 2 	  Q0: 0 	 
37	 	 	40.6	 	 Q8: 0 	 
38	 	 	27.5	 	 Q0: 3 	 
39	 	 	23.3	 	 Q7: 0 	  Q4: 3 	  Q1: 1 	  Q2: 0 	  Q0: 2 	 
40	 	 	18.2	 	 Q3: 0 	  Q7: 1 	  Q4: 3 	 
========================================================== 
TaskID 	 Duration 	 Skill 	 Predecessor IDs 
1	17	Q9:	1
2	31	Q6:	0
3	35	Q5:	2
4	39	Q4:	3
5	37	Q4:	3
6	14	Q7:	1
7	16	Q9:	3
8	31	Q4:	0
9	26	Q4:	2
10	33	Q6:	0
11	11	Q3:	2
12	30	Q7:	2
13	28	Q1:	0
14	39	Q2:	2
15	11	Q9:	1
16	33	Q8:	2	10
17	38	Q0:	0
18	37	Q3:	2
19	13	Q4:	3
20	16	Q2:	0
21	29	Q2:	0
22	20	Q9:	1
23	17	Q8:	2
24	12	Q1:	1
25	37	Q4:	3
26	29	Q9:	2
27	13	Q3:	1
28	27	Q4:	3
29	33	Q9:	2
30	13	Q7:	3	4
31	32	Q8:	0
32	14	Q5:	1
33	27	Q0:	2
34	35	Q5:	3
35	26	Q0:	3
36	27	Q7:	1
37	19	Q2:	2
38	24	Q7:	2
39	24	Q7:	3
40	15	Q1:	0
41	11	Q0:	2
42	28	Q4:	3
43	18	Q9:	2	11
44	18	Q2:	0	14
45	27	Q9:	1
46	40	Q9:	2
47	24	Q4:	2
48	9	Q8:	3
49	14	Q7:	1	28
50	23	Q0:	1	2
51	34	Q4:	0
52	37	Q2:	2
53	15	Q2:	1
54	38	Q4:	1
55	35	Q8:	3
56	37	Q3:	3
57	23	Q7:	1
58	20	Q8:	0
59	28	Q2:	1
60	32	Q8:	2	22
61	15	Q9:	2
62	32	Q1:	3
63	13	Q3:	2
64	23	Q8:	3	50
65	20	Q3:	1	5
66	28	Q3:	1	10
67	28	Q0:	1
68	35	Q1:	1
69	33	Q2:	2	38
70	32	Q2:	2
71	28	Q6:	0
72	38	Q8:	1	17
73	32	Q9:	2
74	16	Q6:	1
75	38	Q0:	3
76	17	Q6:	3
77	29	Q5:	0	52
78	24	Q5:	2
79	40	Q3:	1
80	32	Q8:	1	42
81	26	Q2:	2
82	30	Q4:	2	70
83	8	Q5:	2
84	11	Q8:	1	5
85	9	Q5:	2	51
86	28	Q1:	3
87	9	Q9:	2	27
88	14	Q3:	0	62
89	12	Q5:	2
90	18	Q0:	0
91	17	Q3:	2
92	32	Q2:	3
93	22	Q3:	1	76
94	26	Q6:	2
95	39	Q6:	3
96	21	Q6:	2
97	11	Q4:	0	75
98	17	Q3:	2	71
99	36	Q6:	2	5
100	22	Q9:	0
101	35	Q0:	0
102	39	Q0:	2	51	93
103	25	Q1:	1
104	12	Q7:	1	43
105	37	Q6:	3
106	10	Q9:	1	23
107	37	Q7:	3	2
108	36	Q7:	0
109	28	Q1:	1
110	28	Q1:	3
111	14	Q5:	0
112	13	Q6:	0	100
113	12	Q6:	1
114	22	Q3:	0	85	103
115	15	Q5:	2
116	32	Q9:	2
117	30	Q7:	1
118	37	Q1:	1	54
119	38	Q3:	2
120	30	Q0:	0
121	28	Q5:	3	109
122	20	Q3:	0	95
123	10	Q6:	0
124	27	Q1:	3
125	37	Q3:	2	7
126	12	Q9:	3
127	21	Q5:	3
128	15	Q6:	0	24	32
129	9	Q1:	0	117
130	36	Q0:	2
131	29	Q0:	3
132	37	Q3:	3
133	10	Q4:	0
134	32	Q9:	2
135	24	Q8:	1
136	16	Q1:	3
137	31	Q2:	3
138	17	Q5:	3
139	29	Q0:	2	65
140	28	Q5:	1
141	20	Q3:	3
142	39	Q8:	2
143	30	Q4:	0	69
144	19	Q0:	3
145	34	Q1:	1	126	9
146	19	Q7:	0
147	22	Q2:	2	74
148	32	Q2:	1
149	21	Q9:	2
150	10	Q0:	2
151	29	Q7:	0	46	146
152	10	Q3:	2	74	61	23
153	25	Q1:	2
154	33	Q3:	3
155	12	Q3:	1
156	11	Q6:	0
157	29	Q0:	1
158	26	Q0:	1
159	39	Q6:	1
160	10	Q7:	2	28	146
161	13	Q9:	3	85
162	24	Q7:	3
163	39	Q6:	1
164	30	Q5:	3	50
165	13	Q5:	3	75
166	21	Q2:	1
167	29	Q3:	3	133
168	37	Q2:	1
169	12	Q3:	2	43
170	27	Q4:	0
171	28	Q7:	2	144
172	32	Q9:	0
173	14	Q9:	0
174	21	Q2:	1	56
175	32	Q3:	1	133
176	37	Q6:	3
177	16	Q2:	3	8
178	31	Q7:	1	17
179	27	Q6:	2
180	23	Q3:	0
181	25	Q8:	2	102	177
182	26	Q1:	0	47
183	39	Q9:	1
184	38	Q7:	2
185	14	Q4:	2	120
186	34	Q7:	2
187	18	Q7:	3
188	28	Q0:	0	113	48	152
189	11	Q9:	1	183
190	25	Q7:	2	118
191	38	Q3:	2
192	31	Q6:	0	5	135
193	19	Q3:	0	177
194	19	Q3:	3	74
195	9	Q1:	1
196	29	Q2:	3
197	37	Q5:	1	58
198	23	Q4:	3
199	24	Q7:	0	86
200	11	Q8:	0
201	37	Q6:	1
202	32	Q3:	2	35	112
203	32	Q8:	2
204	24	Q0:	2
205	21	Q5:	1
206	10	Q6:	1	54	124
207	29	Q3:	2
208	35	Q0:	1	62
209	10	Q1:	2	12	94
210	9	Q9:	1	185	39
211	12	Q0:	1
212	17	Q3:	1
213	11	Q6:	0
214	31	Q1:	3	202	144
215	31	Q9:	3
216	20	Q6:	0	165
217	39	Q0:	0	84	8	146	98
218	26	Q9:	0
219	33	Q2:	0
220	17	Q4:	3
221	28	Q3:	0	58	196
222	18	Q2:	1	102	144
223	11	Q0:	1	79
224	26	Q3:	0
225	27	Q8:	3	162
226	16	Q0:	2	173	44	164
227	9	Q6:	3	13
228	39	Q4:	1
229	34	Q8:	0	177	50
230	24	Q1:	3	108	218
231	23	Q0:	0
232	32	Q0:	0	142	16
233	17	Q2:	2	123	214	54
234	34	Q9:	1	207
235	15	Q9:	2	163	71
236	19	Q3:	1
237	26	Q4:	2	235
238	35	Q3:	3
239	29	Q8:	0	140	149	122
240	22	Q0:	3	6	236
241	20	Q6:	3	4	14
242	18	Q5:	3	217
243	38	Q8:	1	105	236
244	23	Q7:	1
245	13	Q5:	1	222	90
246	24	Q3:	0	70
247	34	Q6:	3
248	19	Q7:	2	236	3
249	39	Q4:	2
250	15	Q3:	0	44	51	104
251	10	Q3:	3
252	22	Q0:	1	206	251
253	34	Q2:	1	97	201
254	20	Q5:	2	52	173	247	126
255	32	Q2:	3	60
256	32	Q0:	3	250	152
257	33	Q2:	1
258	17	Q7:	1
259	12	Q3:	2
260	32	Q1:	3
261	21	Q9:	2	55	27
262	38	Q2:	2
263	18	Q7:	2	238	38
264	25	Q5:	3	192
265	18	Q4:	0	2
266	15	Q5:	0	32
267	28	Q0:	2
268	22	Q5:	0
269	20	Q5:	0
270	31	Q6:	1	82	171	99
271	12	Q8:	2	76
272	35	Q1:	3
273	23	Q3:	1	60	93
274	15	Q2:	0
275	24	Q5:	3
276	16	Q6:	3	61
277	34	Q2:	3
278	30	Q4:	0	172	187
279	24	Q5:	2	64
280	34	Q0:	0	31
281	28	Q0:	2	14
282	23	Q3:	2	69
283	12	Q1:	1	164	145
284	19	Q2:	1	81
285	33	Q9:	0	252
286	9	Q9:	1
287	36	Q1:	3
288	30	Q1:	3	112
289	22	Q9:	3	33
290	35	Q8:	0	115	179	162
291	27	Q5:	3	43	48
292	30	Q9:	2	1	254	218
293	26	Q7:	0	32
294	24	Q9:	2	191	276
295	9	Q9:	2	65	261
296	30	Q0:	0
297	11	Q4:	3
298	22	Q6:	1
299	16	Q6:	1
300	24	Q2:	3	18	163	93
301	21	Q5:	2	157
302	31	Q8:	1	137	273
303	32	Q6:	1	216
304	20	Q8:	1	57
305	36	Q2:	0	213	226
306	40	Q0:	3	27	89	304
307	12	Q0:	1	5	300
308	15	Q9:	0	232
309	34	Q5:	3	111
310	17	Q2:	3	211	81
311	27	Q5:	1	57	279
312	34	Q5:	1	67
313	36	Q5:	0	109	90	80
314	40	Q7:	3	115
315	39	Q0:	1
316	38	Q0:	0	61	49
317	27	Q4:	0
318	18	Q4:	1	201	51
319	25	Q7:	2	68	291
320	29	Q7:	2
321	35	Q1:	1
322	34	Q9:	0	227	226
323	26	Q4:	3
324	15	Q0:	0	303
325	11	Q9:	3	134
326	28	Q5:	3
327	30	Q0:	2	240	101
328	25	Q8:	1	260
329	34	Q1:	1	268	72
330	32	Q7:	3	150	317
331	28	Q0:	1	204	240
332	35	Q9:	0
333	27	Q7:	2	268	255
334	38	Q4:	0	36	260	237
335	17	Q6:	0	111
336	26	Q9:	2
337	24	Q0:	0	191	154	105
338	33	Q2:	2	68	62
339	33	Q6:	0
340	38	Q6:	2
341	20	Q7:	1	259
342	10	Q3:	2	123	271
343	17	Q4:	2	214
344	31	Q3:	2	282
345	24	Q6:	0	215
346	27	Q9:	3	59	43
347	12	Q1:	3	69
348	14	Q5:	0
349	18	Q3:	3
350	13	Q2:	0	239	215
351	33	Q4:	3
352	37	Q4:	3
353	21	Q7:	0	103
354	10	Q6:	2	311	112
355	24	Q5:	3
356	21	Q9:	0	77
357	34	Q7:	2
358	11	Q8:	2	331
359	10	Q6:	1
360	32	Q3:	1
361	12	Q6:	0	118	215
362	13	Q6:	0	63	73
363	19	Q5:	2
364	29	Q0:	0	184	124
365	17	Q8:	1
366	35	Q3:	3	352
367	15	Q7:	0	203	37	101
368	10	Q1:	0	324
369	15	Q9:	3	286
370	17	Q6:	1	78	103	201
371	34	Q7:	3	313	167	66
372	32	Q3:	0	289
373	12	Q8:	0	184	106	80
374	24	Q0:	1	324
375	36	Q1:	1
376	9	Q8:	2	4
377	25	Q3:	3	276
378	13	Q6:	1	231
379	32	Q4:	1	160
380	22	Q9:	0	229
381	40	Q0:	0	71
382	37	Q2:	2	133	88	329
383	25	Q6:	2	361	182
384	29	Q4:	2	227	103
385	21	Q4:	2	126	32
386	11	Q1:	1	83	74
387	22	Q0:	0	47
388	36	Q5:	3
389	24	Q4:	3	269
390	18	Q3:	3	250	380	72	287
391	28	Q3:	1	269	217
392	19	Q1:	1	254	231	311
393	39	Q4:	1	350	144
394	34	Q0:	0	205	174	308
395	13	Q4:	0
396	25	Q6:	1	249
397	25	Q2:	0	265	90
398	34	Q8:	0	332	166	3
399	13	Q2:	2	318	174
400	13	Q1:	1	392	52	30	95
401	26	Q7:	0	251	130
402	26	Q7:	2	200
403	13	Q1:	1
404	35	Q7:	3	33	215
405	19	Q2:	2	326	232
406	33	Q0:	0	178	381	123
407	14	Q0:	1
408	14	Q0:	3	335	58
409	14	Q4:	0	93	46	136
410	13	Q6:	1	201
411	31	Q8:	1
412	39	Q0:	2	257
413	37	Q5:	3	327	233
414	38	Q4:	1	413	46	20
415	30	Q1:	0	85
416	32	Q0:	3	158
417	28	Q7:	3	53	321
418	10	Q0:	0	343	9
419	9	Q3:	3	226	120	65	138
420	11	Q2:	1	300	183	91	10
421	20	Q2:	1	56
422	16	Q4:	0	234	283
423	9	Q8:	0	266
424	25	Q0:	3	150	228
425	18	Q0:	0
426	22	Q7:	1	372	28
427	14	Q5:	3	36
428	17	Q8:	3	26	263
429	18	Q4:	2	232	137
430	37	Q5:	2	100	197	398	240
431	34	Q7:	1	174
432	11	Q3:	1	256	95	321
433	29	Q8:	3	181	375	6
434	12	Q4:	3	323	221
435	30	Q6:	1	228	36	102
436	33	Q7:	2	244	25	361
437	28	Q0:	3	142
438	18	Q0:	1	344
439	32	Q0:	0	350
440	30	Q9:	0	263	119	259
441	35	Q2:	0
442	17	Q5:	2	162	413
443	13	Q6:	1	236	79
444	12	Q9:	2	238	136
445	17	Q8:	2	26
446	27	Q5:	2	81	58	25	298	109
447	34	Q1:	3	176	84	181
448	13	Q1:	0	126	268	410
449	28	Q6:	3	288	226
450	38	Q5:	1	185
451	17	Q3:	3	389
452	33	Q7:	2
453	33	Q9:	3
454	11	Q2:	3	399	131
455	20	Q1:	3	67	417
456	38	Q9:	3	252	27
457	25	Q0:	0
458	11	Q8:	1	240	253
459	30	Q5:	3	19	17
460	40	Q2:	2	62
461	25	Q3:	1	447	85	329
462	10	Q6:	1	223	151	8
463	36	Q4:	3	384	261	301	212
464	11	Q5:	3	122
465	26	Q6:	0	151	35
466	20	Q2:	0	148	259
467	34	Q2:	0	432	99	152
468	37	Q7:	0	384	199
469	24	Q6:	3	47	225
470	18	Q8:	0
471	25	Q9:	2
472	27	Q9:	3	192
473	20	Q0:	1	413	405	112
474	17	Q6:	1	53	90	167
475	10	Q5:	3	225
476	16	Q1:	0	111	235	446
477	10	Q0:	0	252
478	21	Q1:	1
479	30	Q3:	1
480	11	Q7:	3	384	373
481	9	Q5:	3	24	168	298
482	10	Q6:	2	214	57	146	95
483	10	Q3:	0	38
484	28	Q6:	0	213	463
485	40	Q2:	2	308	480
486	39	Q1:	1
487	15	Q1:	2	188	336	141
488	19	Q1:	1	365	382	246	185	269
489	28	Q7:	3	232	486	113
490	18	Q6:	3	91	410
491	29	Q9:	0	248
492	16	Q3:	3	451	14	163	158
493	32	Q7:	1	20	442	480
494	17	Q0:	1	320
495	33	Q2:	3	376	244
496	20	Q7:	1	5	188
497	31	Q7:	0	349	423
498	39	Q6:	1	453	189	291	286	182
499	23	Q2:	0	194
500	16	Q9:	2	377
========================================================== 